certificates/rado_a7_c123_N19.cnf
c Rad2 upper bound instance: x1 + 7*x2 - x3 = 123, interval [1,19]
p cnf 19 96
1 4 18 0
-1 -4 -18 0
1 11 19 0
-1 -11 -19 0
2 5 18 0
-2 -5 -18 0
2 12 19 0
-2 -12 -19 0
3 6 18 0
-3 -6 -18 0
3 13 19 0
-3 -13 -19 0
4 7 18 0
-4 -7 -18 0
4 14 19 0
-4 -14 -19 0
1 5 17 0
-1 -5 -17 0
5 8 18 0
-5 -8 -18 0
5 15 19 0
-5 -15 -19 0
2 6 17 0
-2 -6 -17 0
6 9 18 0
-6 -9 -18 0
6 16 19 0
-6 -16 -19 0
3 7 17 0
-3 -7 -17 0
7 10 18 0
-7 -10 -18 0
7 17 19 0
-7 -17 -19 0
4 8 17 0
-4 -8 -17 0
8 11 18 0
-8 -11 -18 0
8 18 19 0
-8 -18 -19 0
5 9 17 0
-5 -9 -17 0
9 12 18 0
-9 -12 -18 0
9 19 0
-9 -19 0
6 10 17 0
-6 -10 -17 0
10 13 18 0
-10 -13 -18 0
7 11 17 0
-7 -11 -17 0
11 14 18 0
-11 -14 -18 0
1 12 16 0
-1 -12 -16 0
8 12 17 0
-8 -12 -17 0
12 15 18 0
-12 -15 -18 0
2 13 16 0
-2 -13 -16 0
9 13 17 0
-9 -13 -17 0
13 16 18 0
-13 -16 -18 0
3 14 16 0
-3 -14 -16 0
10 14 17 0
-10 -14 -17 0
14 17 18 0
-14 -17 -18 0
4 15 16 0
-4 -15 -16 0
11 15 17 0
-11 -15 -17 0
15 18 0
-15 -18 0
5 16 0
-5 -16 0
12 16 17 0
-12 -16 -17 0
16 18 19 0
-16 -18 -19 0
6 16 17 0
-6 -16 -17 0
13 17 0
-13 -17 0
7 16 18 0
-7 -16 -18 0
1 15 19 0
-1 -15 -19 0
8 16 19 0
-8 -16 -19 0
15 17 19 0
-15 -17 -19 0
