certificates/rado_a7_c123_N19.drat
-18 -19 0
-15 -19 0
d -15 -1 -19 0
-19 0
9 0
-15 0
18 0
1 0
17 0
5 0
-6 0
-12 0
-4 0
0
